NAME : eil76.tour
COMMENT : best solution found for eil76 (547.0)
TYPE : TOUR 
DIMENSION : 76
TOUR_SECTION
7
18
58
13
52
10
65
64
37
9
30
54
24
49
17
23
48
22
55
40
42
41
63
21
61
0
72
32
62
15
2
43
31
8
38
71
57
11
39
16
50
5
67
74
75
3
44
28
47
29
1
73
27
60
20
46
35
68
70
59
69
19
36
4
14
56
53
12
26
51
33
45
66
25
6
34
-1
EOF